n = 5;
m = 4;
consecutive_high_days_allowed = 1;
high_regime_percentage = 75;
capacity = [300, 300, 500];
production_cost = [40, 60, 50];
demand = [| 100, 150, 120, 90, 80
          | 80, 70, 110, 100, 90
          | 130, 120, 90, 80, 70
          | 300, 390, 380, 370, 360 |];
payment_per_mw = [60, 70, 80, 90];
G = 60;
